
%FILE DATA:	Soccer Computational Problem for MiniZinc Models	%
%AUTHOR:	Jack Wall	%
%CONTACT:  	116397063@umail.ucc.ie			%
%LAST UPDATE:	03/16/2020, 15:01:13						%
%DESCRIPTION: 	165 games played with 45 games left				%


n=15; %number of teams

%Games to play
games=[|10,5|12,14|13,10|7,9|12,9|3,15|3,8|4,12|8,6|12,8|5,8|9,11|15,2|6,7|2,14|4,1|14,10|14,6|10,9|2,3|2,15|15,13|13,14|12,2|8,10|15,8|12,10|8,9|13,11|9,2|6,2|8,3|1,14|13,1|8,12|7,14|8,5|5,2|1,12|1,11|10,1|2,5|8,7|7,2|9,5|];

%Initial points
iPoints=[29,25,38,22,27,28,34,27,30,32,40,19,34,36,30];

%POSITION CONSTRAINTS
% [|teamID, operator, position|...]
% operators index:
%  1 for =  operator
%  2 for >  operator
%  3 for >= operator
%  4 for <  operator
%  5 for <= operator
positionConstraints=[|14,3,1|8,5,2|];